\* AmbulanceLocation5 *\
Maximize
OBJ: 8082 u_0 + 3213 u_1 + 9141 u_10 + 6975 u_11 + 2382 u_12 + 2011 u_13
 + 6549 u_14 + 7644 u_15 + 3957 u_16 + 5879 u_17 + 7606 u_18 + 4153 u_19
 + 7389 u_2 + 9528 u_20 + 9810 u_21 + 9849 u_22 + 3213 u_23 + 6658 u_24
 + 8329 u_25 + 5142 u_26 + 6213 u_27 + 3683 u_28 + 6119 u_29 + 3672 u_3
 + 2700 u_30 + 2909 u_31 + 5652 u_32 + 4414 u_33 + 6554 u_34 + 8208 u_35
 + 3340 u_36 + 8588 u_37 + 8408 u_38 + 1552 u_39 + 7198 u_4 + 5814 u_40
 + 8758 u_41 + 6608 u_42 + 9701 u_43 + 9565 u_44 + 3917 u_45 + 1627 u_46
 + 9610 u_47 + 4361 u_48 + 5081 u_49 + 6309 u_5 + 9724 u_50 + 9703 u_51
 + 2527 u_52 + 1857 u_53 + 6627 u_54 + 2928 u_55 + 4160 u_56 + 8561 u_57
 + 3998 u_58 + 1506 u_59 + 3043 u_6 + 2686 u_60 + 6539 u_61 + 8267 u_62
 + 1858 u_63 + 5904 u_64 + 2778 u_65 + 1524 u_66 + 5128 u_67 + 9463 u_68
 + 3080 u_69 + 4750 u_7 + 8861 u_70 + 9063 u_71 + 5800 u_72 + 8704 u_73
 + 8886 u_74 + 8820 u_75 + 3622 u_76 + 3077 u_77 + 9196 u_78 + 4989 u_79
 + 6786 u_8 + 3686 u_80 + 9376 u_81 + 3707 u_82 + 7847 u_83 + 9195 u_84
 + 3152 u_9
Subject To
_C1: - 40 u_0 + x_0 + x_1 + x_10 + x_11 + x_12 + x_14 + x_16 + x_21 + x_22
 + x_25 + x_27 + x_28 + x_29 + x_3 + x_30 + x_31 + x_33 + x_34 + x_38 + x_39
 + x_4 >= 1
_C10: - 40 u_9 + x_0 + x_1 + x_11 + x_13 + x_15 + x_17 + x_18 + x_20 + x_22
 + x_23 + x_24 + x_27 + x_28 + x_3 + x_32 + x_36 + x_39 + x_5 + x_7 + x_8
 + x_9 >= 1
_C11: - 40 u_10 + x_0 + x_1 + x_10 + x_11 + x_13 + x_14 + x_15 + x_16 + x_17
 + x_18 + x_19 + x_21 + x_23 + x_24 + x_25 + x_26 + x_27 + x_3 + x_31 + x_34
 + x_35 + x_36 + x_38 + x_4 + x_6 + x_7 + x_8 >= 1
_C12: - 40 u_11 + x_0 + x_1 + x_10 + x_12 + x_14 + x_15 + x_16 + x_17 + x_18
 + x_19 + x_20 + x_22 + x_24 + x_25 + x_26 + x_27 + x_29 + x_3 + x_30 + x_31
 + x_33 + x_35 + x_36 + x_37 + x_39 + x_7 + x_8 >= 1
_C13: - 40 u_12 + x_0 + x_11 + x_13 + x_14 + x_15 + x_16 + x_17 + x_18 + x_19
 + x_2 + x_20 + x_21 + x_22 + x_23 + x_24 + x_25 + x_26 + x_28 + x_30 + x_33
 + x_34 + x_38 + x_6 + x_7 + x_9 >= 1
_C14: - 40 u_13 + x_0 + x_1 + x_10 + x_11 + x_13 + x_15 + x_16 + x_17 + x_18
 + x_2 + x_21 + x_22 + x_23 + x_25 + x_27 + x_28 + x_3 + x_30 + x_31 + x_32
 + x_33 + x_35 + x_37 + x_39 + x_5 + x_8 + x_9 >= 1
_C15: - 40 u_14 + x_1 + x_11 + x_13 + x_14 + x_15 + x_17 + x_18 + x_2 + x_20
 + x_21 + x_23 + x_24 + x_25 + x_26 + x_28 + x_29 + x_32 + x_34 + x_35 + x_37
 + x_6 + x_7 + x_8 + x_9 >= 1
_C16: - 40 u_15 + x_11 + x_14 + x_15 + x_17 + x_18 + x_19 + x_20 + x_21 + x_22
 + x_24 + x_26 + x_27 + x_28 + x_29 + x_30 + x_32 + x_36 + x_4 + x_5 + x_7
 + x_8 + x_9 >= 1
_C17: - 40 u_16 + x_0 + x_10 + x_13 + x_16 + x_18 + x_2 + x_20 + x_21 + x_22
 + x_23 + x_25 + x_26 + x_28 + x_29 + x_30 + x_32 + x_33 + x_34 + x_35 + x_37
 + x_38 + x_4 + x_7 + x_9 >= 1
_C18: - 40 u_17 + x_0 + x_1 + x_11 + x_14 + x_16 + x_18 + x_19 + x_20 + x_22
 + x_23 + x_27 + x_28 + x_30 + x_32 + x_33 + x_34 + x_35 + x_37 + x_38 + x_6
 + x_7 + x_8 + x_9 >= 1
_C19: - 40 u_18 + x_0 + x_1 + x_11 + x_12 + x_14 + x_16 + x_2 + x_20 + x_21
 + x_23 + x_28 + x_3 + x_30 + x_31 + x_32 + x_33 + x_34 + x_35 + x_36 + x_37
 + x_4 + x_5 + x_6 + x_7 + x_8 + x_9 >= 1
_C2: - 40 u_1 + x_1 + x_14 + x_15 + x_16 + x_17 + x_18 + x_21 + x_22 + x_23
 + x_27 + x_28 + x_29 + x_3 + x_30 + x_32 + x_33 + x_35 + x_37 + x_39 + x_5
 + x_6 + x_7 + x_9 >= 1
_C20: - 40 u_19 + x_0 + x_14 + x_18 + x_19 + x_2 + x_21 + x_22 + x_24 + x_25
 + x_26 + x_28 + x_29 + x_30 + x_31 + x_32 + x_34 + x_35 + x_38 + x_39 + x_6
 + x_7 + x_8 >= 1
_C21: - 40 u_20 + x_0 + x_11 + x_15 + x_16 + x_17 + x_2 + x_20 + x_21 + x_24
 + x_26 + x_27 + x_28 + x_29 + x_30 + x_31 + x_32 + x_34 + x_36 + x_37 + x_39
 + x_4 + x_5 + x_6 + x_8 >= 1
_C22: - 40 u_21 + x_0 + x_10 + x_11 + x_12 + x_13 + x_15 + x_16 + x_17 + x_18
 + x_19 + x_21 + x_22 + x_23 + x_25 + x_31 + x_33 + x_34 + x_35 + x_37 + x_38
 + x_39 + x_4 + x_5 + x_6 + x_8 + x_9 >= 1
_C23: - 40 u_22 + x_1 + x_11 + x_12 + x_13 + x_18 + x_2 + x_20 + x_23 + x_24
 + x_25 + x_26 + x_28 + x_29 + x_34 + x_36 + x_37 + x_38 + x_4 + x_6 + x_8
 + x_9 >= 1
_C24: - 40 u_23 + x_1 + x_11 + x_16 + x_18 + x_2 + x_20 + x_21 + x_22 + x_23
 + x_24 + x_25 + x_27 + x_31 + x_32 + x_33 + x_36 + x_38 + x_39 + x_5 + x_6
 + x_7 >= 1
_C25: - 40 u_24 + x_0 + x_1 + x_11 + x_12 + x_15 + x_16 + x_17 + x_18 + x_19
 + x_2 + x_21 + x_23 + x_24 + x_25 + x_26 + x_27 + x_31 + x_32 + x_33 + x_35
 + x_36 + x_37 + x_39 + x_6 + x_8 >= 1
_C26: - 40 u_25 + x_0 + x_11 + x_13 + x_15 + x_17 + x_18 + x_19 + x_21 + x_22
 + x_23 + x_24 + x_25 + x_3 + x_30 + x_31 + x_34 + x_35 + x_37 + x_38 + x_4
 + x_5 + x_6 + x_7 + x_8 + x_9 >= 1
_C27: - 40 u_26 + x_12 + x_13 + x_14 + x_18 + x_19 + x_20 + x_22 + x_24 + x_25
 + x_27 + x_28 + x_30 + x_32 + x_35 + x_36 + x_37 + x_38 + x_5 + x_7 + x_8
 + x_9 >= 1
_C28: - 40 u_27 + x_10 + x_11 + x_12 + x_13 + x_14 + x_16 + x_17 + x_22 + x_23
 + x_25 + x_27 + x_28 + x_30 + x_31 + x_32 + x_34 + x_36 + x_38 + x_4 + x_6
 + x_7 + x_9 >= 1
_C29: - 40 u_28 + x_0 + x_1 + x_10 + x_11 + x_14 + x_15 + x_16 + x_17 + x_18
 + x_19 + x_2 + x_21 + x_23 + x_24 + x_25 + x_27 + x_28 + x_30 + x_31 + x_35
 + x_38 + x_4 + x_5 + x_8 >= 1
_C3: - 40 u_2 + x_0 + x_1 + x_11 + x_12 + x_13 + x_14 + x_16 + x_17 + x_19
 + x_23 + x_26 + x_27 + x_28 + x_3 + x_31 + x_33 + x_34 + x_35 + x_37 + x_38
 + x_4 + x_5 >= 1
_C30: - 40 u_29 + x_11 + x_12 + x_13 + x_15 + x_18 + x_19 + x_21 + x_23 + x_24
 + x_27 + x_28 + x_29 + x_30 + x_31 + x_32 + x_33 + x_34 + x_35 + x_37 + x_38
 + x_7 + x_8 + x_9 >= 1
_C31: - 40 u_30 + x_0 + x_1 + x_10 + x_11 + x_12 + x_13 + x_14 + x_15 + x_17
 + x_18 + x_19 + x_21 + x_22 + x_23 + x_25 + x_26 + x_27 + x_29 + x_3 + x_30
 + x_31 + x_33 + x_34 + x_35 + x_36 + x_37 + x_38 + x_9 >= 1
_C32: - 40 u_31 + x_1 + x_10 + x_12 + x_14 + x_15 + x_17 + x_19 + x_2 + x_20
 + x_21 + x_23 + x_24 + x_25 + x_27 + x_29 + x_31 + x_32 + x_34 + x_35 + x_36
 + x_37 + x_5 + x_6 + x_8 >= 1
_C33: - 40 u_32 + x_0 + x_11 + x_12 + x_13 + x_15 + x_17 + x_18 + x_19 + x_2
 + x_21 + x_22 + x_24 + x_25 + x_26 + x_29 + x_3 + x_30 + x_31 + x_32 + x_35
 + x_37 + x_38 + x_4 + x_7 >= 1
_C34: - 40 u_33 + x_1 + x_12 + x_14 + x_15 + x_16 + x_18 + x_19 + x_2 + x_20
 + x_21 + x_24 + x_25 + x_26 + x_28 + x_3 + x_30 + x_31 + x_33 + x_34 + x_35
 + x_37 + x_38 + x_39 + x_6 + x_8 + x_9 >= 1
_C35: - 40 u_34 + x_1 + x_12 + x_14 + x_15 + x_17 + x_20 + x_22 + x_24 + x_28
 + x_3 + x_30 + x_33 + x_34 + x_35 + x_38 + x_39 + x_5 + x_6 + x_7 + x_8 + x_9
 >= 1
_C36: - 40 u_35 + x_11 + x_12 + x_14 + x_16 + x_17 + x_18 + x_19 + x_2 + x_20
 + x_22 + x_24 + x_25 + x_26 + x_27 + x_28 + x_29 + x_3 + x_32 + x_33 + x_34
 + x_35 + x_36 + x_37 + x_38 + x_4 + x_6 + x_7 + x_9 >= 1
_C37: - 40 u_36 + x_1 + x_11 + x_13 + x_14 + x_15 + x_16 + x_17 + x_18 + x_19
 + x_20 + x_21 + x_22 + x_27 + x_29 + x_3 + x_30 + x_31 + x_32 + x_33 + x_34
 + x_35 + x_36 + x_37 + x_38 + x_4 + x_7 + x_8 + x_9 >= 1
_C38: - 40 u_37 + x_1 + x_10 + x_11 + x_13 + x_14 + x_19 + x_23 + x_24 + x_25
 + x_27 + x_32 + x_33 + x_38 + x_39 + x_6 + x_8 + x_9 >= 1
_C39: - 40 u_38 + x_0 + x_1 + x_10 + x_12 + x_13 + x_15 + x_18 + x_19 + x_21
 + x_22 + x_23 + x_25 + x_27 + x_28 + x_31 + x_32 + x_33 + x_38 + x_39 + x_4
 + x_5 + x_6 + x_9 >= 1
_C4: - 40 u_3 + x_0 + x_1 + x_11 + x_12 + x_13 + x_14 + x_15 + x_16 + x_19
 + x_2 + x_24 + x_29 + x_3 + x_31 + x_34 + x_35 + x_37 + x_38 + x_4 + x_5
 + x_6 >= 1
_C40: - 40 u_39 + x_12 + x_13 + x_16 + x_19 + x_2 + x_21 + x_22 + x_23 + x_24
 + x_26 + x_28 + x_29 + x_31 + x_32 + x_33 + x_34 + x_35 + x_36 + x_38 + x_4
 + x_5 + x_6 + x_7 + x_8 + x_9 >= 1
_C41: - 40 u_40 + x_0 + x_10 + x_11 + x_13 + x_14 + x_16 + x_17 + x_19 + x_24
 + x_26 + x_27 + x_28 + x_29 + x_3 + x_30 + x_32 + x_33 + x_34 + x_37 + x_39
 + x_4 + x_5 + x_6 >= 1
_C42: - 40 u_41 + x_11 + x_13 + x_14 + x_15 + x_17 + x_18 + x_20 + x_22 + x_23
 + x_24 + x_25 + x_27 + x_30 + x_31 + x_34 + x_35 + x_38 + x_4 + x_6 + x_7
 + x_8 + x_9 >= 1
_C43: - 40 u_42 + x_0 + x_1 + x_12 + x_13 + x_14 + x_15 + x_17 + x_18 + x_20
 + x_21 + x_22 + x_25 + x_27 + x_28 + x_29 + x_31 + x_32 + x_36 + x_37 + x_38
 + x_4 + x_5 + x_7 + x_8 >= 1
_C44: - 40 u_43 + x_0 + x_1 + x_10 + x_12 + x_18 + x_2 + x_21 + x_22 + x_24
 + x_25 + x_26 + x_27 + x_29 + x_3 + x_30 + x_33 + x_35 + x_36 + x_37 + x_39
 + x_4 + x_5 + x_7 + x_8 >= 1
_C45: - 40 u_44 + x_10 + x_11 + x_12 + x_13 + x_14 + x_15 + x_19 + x_2 + x_20
 + x_21 + x_22 + x_23 + x_25 + x_27 + x_31 + x_32 + x_34 + x_36 + x_37 + x_6
 + x_7 + x_8 + x_9 >= 1
_C46: - 40 u_45 + x_11 + x_12 + x_14 + x_15 + x_17 + x_19 + x_2 + x_20 + x_22
 + x_23 + x_25 + x_26 + x_27 + x_28 + x_3 + x_31 + x_32 + x_33 + x_35 + x_36
 + x_37 + x_39 + x_4 + x_5 + x_6 + x_7 + x_8 + x_9 >= 1
_C47: - 40 u_46 + x_0 + x_10 + x_12 + x_14 + x_16 + x_17 + x_18 + x_19 + x_21
 + x_22 + x_24 + x_25 + x_26 + x_27 + x_28 + x_29 + x_3 + x_32 + x_34 + x_37
 + x_38 + x_39 + x_4 + x_5 + x_9 >= 1
_C48: - 40 u_47 + x_0 + x_1 + x_12 + x_13 + x_15 + x_17 + x_18 + x_19 + x_20
 + x_21 + x_22 + x_23 + x_24 + x_25 + x_26 + x_27 + x_28 + x_29 + x_33 + x_34
 + x_35 + x_37 + x_38 + x_4 + x_5 + x_6 + x_7 + x_8 + x_9 >= 1
_C49: - 40 u_48 + x_12 + x_13 + x_15 + x_16 + x_18 + x_19 + x_2 + x_20 + x_21
 + x_22 + x_23 + x_24 + x_25 + x_26 + x_27 + x_29 + x_3 + x_30 + x_31 + x_32
 + x_33 + x_34 + x_38 + x_39 + x_5 + x_6 + x_7 + x_9 >= 1
_C5: - 40 u_4 + x_0 + x_13 + x_14 + x_15 + x_16 + x_17 + x_18 + x_20 + x_21
 + x_23 + x_26 + x_28 + x_29 + x_30 + x_31 + x_38 + x_39 + x_4 + x_8 + x_9
 >= 1
_C50: - 40 u_49 + x_11 + x_12 + x_14 + x_15 + x_16 + x_17 + x_18 + x_19 + x_2
 + x_20 + x_21 + x_23 + x_24 + x_25 + x_27 + x_29 + x_30 + x_31 + x_32 + x_34
 + x_36 + x_37 + x_38 + x_39 + x_4 + x_9 >= 1
_C51: - 40 u_50 + x_10 + x_12 + x_13 + x_14 + x_15 + x_17 + x_19 + x_2 + x_20
 + x_22 + x_24 + x_26 + x_27 + x_29 + x_3 + x_32 + x_33 + x_34 + x_37 + x_38
 + x_39 + x_4 + x_5 + x_6 + x_7 >= 1
_C52: - 40 u_51 + x_10 + x_14 + x_17 + x_18 + x_19 + x_21 + x_25 + x_29 + x_30
 + x_33 + x_34 + x_37 + x_39 + x_6 + x_7 + x_9 >= 1
_C53: - 40 u_52 + x_0 + x_1 + x_10 + x_11 + x_12 + x_13 + x_14 + x_15 + x_17
 + x_19 + x_21 + x_23 + x_24 + x_25 + x_26 + x_27 + x_3 + x_32 + x_34 + x_38
 + x_39 + x_6 + x_9 >= 1
_C54: - 40 u_53 + x_0 + x_1 + x_11 + x_14 + x_15 + x_16 + x_17 + x_19 + x_22
 + x_23 + x_24 + x_27 + x_28 + x_3 + x_30 + x_31 + x_33 + x_34 + x_35 + x_36
 + x_37 + x_9 >= 1
_C55: - 40 u_54 + x_0 + x_10 + x_11 + x_13 + x_15 + x_18 + x_19 + x_2 + x_20
 + x_21 + x_23 + x_24 + x_27 + x_29 + x_31 + x_32 + x_33 + x_35 + x_38 + x_39
 + x_8 + x_9 >= 1
_C56: - 40 u_55 + x_0 + x_10 + x_11 + x_13 + x_14 + x_15 + x_16 + x_17 + x_18
 + x_2 + x_20 + x_21 + x_22 + x_23 + x_26 + x_29 + x_30 + x_31 + x_32 + x_34
 + x_36 + x_37 + x_39 + x_4 + x_5 + x_7 + x_8 >= 1
_C57: - 40 u_56 + x_0 + x_1 + x_10 + x_12 + x_13 + x_15 + x_16 + x_18 + x_19
 + x_2 + x_21 + x_23 + x_24 + x_25 + x_26 + x_28 + x_30 + x_33 + x_34 + x_35
 + x_36 + x_38 + x_4 + x_5 + x_9 >= 1
_C58: - 40 u_57 + x_1 + x_12 + x_13 + x_14 + x_15 + x_17 + x_19 + x_2 + x_20
 + x_21 + x_22 + x_24 + x_25 + x_28 + x_29 + x_3 + x_31 + x_33 + x_34 + x_35
 + x_36 + x_37 + x_38 + x_39 + x_4 + x_5 + x_7 >= 1
_C59: - 40 u_58 + x_1 + x_10 + x_12 + x_13 + x_14 + x_15 + x_17 + x_18 + x_19
 + x_20 + x_21 + x_22 + x_24 + x_27 + x_28 + x_29 + x_3 + x_33 + x_35 + x_36
 + x_38 + x_4 + x_5 + x_6 + x_8 + x_9 >= 1
_C6: - 40 u_5 + x_0 + x_10 + x_13 + x_15 + x_17 + x_18 + x_19 + x_2 + x_21
 + x_22 + x_25 + x_26 + x_3 + x_31 + x_32 + x_34 + x_36 + x_37 + x_38 + x_39
 + x_4 + x_5 + x_6 + x_7 + x_8 + x_9 >= 1
_C60: - 40 u_59 + x_1 + x_10 + x_11 + x_12 + x_13 + x_15 + x_16 + x_18 + x_2
 + x_20 + x_24 + x_25 + x_26 + x_27 + x_28 + x_3 + x_30 + x_31 + x_34 + x_37
 + x_38 + x_39 + x_4 + x_6 + x_7 + x_9 >= 1
_C61: - 40 u_60 + x_10 + x_12 + x_13 + x_14 + x_15 + x_17 + x_19 + x_2 + x_20
 + x_22 + x_23 + x_24 + x_26 + x_27 + x_28 + x_29 + x_3 + x_31 + x_32 + x_33
 + x_34 + x_37 + x_38 + x_39 + x_6 + x_8 >= 1
_C62: - 40 u_61 + x_0 + x_11 + x_12 + x_13 + x_14 + x_16 + x_19 + x_2 + x_21
 + x_22 + x_23 + x_24 + x_26 + x_31 + x_32 + x_33 + x_34 + x_35 + x_38 + x_39
 + x_6 + x_7 + x_8 + x_9 >= 1
_C63: - 40 u_62 + x_0 + x_1 + x_10 + x_11 + x_12 + x_13 + x_14 + x_15 + x_17
 + x_18 + x_2 + x_20 + x_21 + x_22 + x_26 + x_28 + x_29 + x_3 + x_33 + x_34
 + x_37 + x_39 + x_6 + x_8 + x_9 >= 1
_C64: - 40 u_63 + x_0 + x_1 + x_10 + x_11 + x_13 + x_14 + x_15 + x_17 + x_18
 + x_19 + x_2 + x_20 + x_21 + x_22 + x_23 + x_26 + x_27 + x_28 + x_29 + x_30
 + x_32 + x_33 + x_36 + x_7 + x_9 >= 1
_C65: - 40 u_64 + x_10 + x_11 + x_12 + x_13 + x_15 + x_18 + x_2 + x_20 + x_22
 + x_23 + x_24 + x_25 + x_26 + x_27 + x_28 + x_30 + x_31 + x_32 + x_33 + x_34
 + x_36 + x_37 + x_38 + x_39 + x_6 + x_8 + x_9 >= 1
_C66: - 40 u_65 + x_1 + x_11 + x_12 + x_13 + x_14 + x_16 + x_18 + x_19 + x_20
 + x_23 + x_25 + x_26 + x_27 + x_28 + x_29 + x_3 + x_30 + x_31 + x_32 + x_35
 + x_39 + x_5 + x_7 + x_8 >= 1
_C67: - 40 u_66 + x_0 + x_1 + x_11 + x_12 + x_13 + x_15 + x_18 + x_2 + x_20
 + x_21 + x_22 + x_24 + x_26 + x_27 + x_3 + x_32 + x_34 + x_35 + x_37 + x_38
 + x_4 + x_6 + x_7 + x_8 + x_9 >= 1
_C68: - 40 u_67 + x_0 + x_12 + x_13 + x_16 + x_19 + x_20 + x_21 + x_24 + x_25
 + x_28 + x_31 + x_32 + x_34 + x_36 + x_37 + x_38 + x_4 + x_6 + x_7 + x_9 >= 1
_C69: - 40 u_68 + x_13 + x_17 + x_19 + x_2 + x_20 + x_21 + x_23 + x_25 + x_26
 + x_28 + x_30 + x_31 + x_32 + x_33 + x_34 + x_38 + x_39 + x_6 + x_7 + x_8
 >= 1
_C7: - 40 u_6 + x_1 + x_12 + x_13 + x_14 + x_15 + x_16 + x_18 + x_19 + x_2
 + x_20 + x_21 + x_23 + x_25 + x_26 + x_27 + x_29 + x_3 + x_31 + x_33 + x_36
 + x_37 + x_38 + x_4 + x_7 + x_9 >= 1
_C70: - 40 u_69 + x_0 + x_12 + x_14 + x_15 + x_16 + x_19 + x_2 + x_20 + x_21
 + x_22 + x_24 + x_25 + x_28 + x_3 + x_30 + x_31 + x_32 + x_34 + x_35 + x_36
 + x_39 + x_4 + x_6 + x_7 + x_9 >= 1
_C71: - 40 u_70 + x_1 + x_11 + x_12 + x_13 + x_14 + x_15 + x_16 + x_17 + x_18
 + x_19 + x_23 + x_24 + x_27 + x_28 + x_29 + x_32 + x_33 + x_36 + x_39 + x_4
 + x_6 + x_7 >= 1
_C72: - 40 u_71 + x_0 + x_10 + x_18 + x_21 + x_25 + x_26 + x_27 + x_28 + x_31
 + x_32 + x_35 + x_37 + x_38 + x_5 + x_6 + x_7 + x_8 >= 1
_C73: - 40 u_72 + x_1 + x_10 + x_11 + x_16 + x_17 + x_18 + x_2 + x_21 + x_22
 + x_23 + x_24 + x_26 + x_27 + x_28 + x_3 + x_30 + x_34 + x_36 + x_39 + x_4
 + x_5 + x_7 + x_8 + x_9 >= 1
_C74: - 40 u_73 + x_0 + x_13 + x_14 + x_15 + x_16 + x_17 + x_18 + x_19 + x_20
 + x_22 + x_23 + x_24 + x_26 + x_28 + x_29 + x_31 + x_32 + x_34 + x_35 + x_36
 + x_37 + x_38 + x_39 + x_4 + x_6 + x_7 + x_8 + x_9 >= 1
_C75: - 40 u_74 + x_1 + x_11 + x_12 + x_14 + x_15 + x_17 + x_18 + x_19 + x_20
 + x_22 + x_23 + x_24 + x_26 + x_27 + x_28 + x_29 + x_3 + x_31 + x_32 + x_33
 + x_35 + x_36 + x_37 + x_38 + x_39 + x_4 + x_6 + x_8 + x_9 >= 1
_C76: - 40 u_75 + x_0 + x_1 + x_12 + x_14 + x_15 + x_18 + x_19 + x_2 + x_20
 + x_23 + x_24 + x_3 + x_33 + x_34 + x_35 + x_36 + x_39 + x_9 >= 1
_C77: - 40 u_76 + x_0 + x_1 + x_10 + x_12 + x_13 + x_15 + x_18 + x_19 + x_22
 + x_23 + x_26 + x_27 + x_3 + x_31 + x_32 + x_34 + x_35 + x_36 + x_37 + x_38
 + x_39 + x_4 + x_5 + x_6 + x_8 >= 1
_C78: - 40 u_77 + x_14 + x_15 + x_17 + x_18 + x_19 + x_20 + x_23 + x_24 + x_26
 + x_27 + x_29 + x_30 + x_34 + x_35 + x_36 + x_38 + x_6 >= 1
_C79: - 40 u_78 + x_0 + x_11 + x_13 + x_14 + x_15 + x_17 + x_18 + x_22 + x_25
 + x_27 + x_28 + x_30 + x_33 + x_37 + x_38 + x_4 + x_5 + x_6 + x_7 >= 1
_C8: - 40 u_7 + x_0 + x_1 + x_12 + x_14 + x_15 + x_16 + x_18 + x_19 + x_2
 + x_20 + x_25 + x_26 + x_28 + x_29 + x_3 + x_30 + x_32 + x_33 + x_34 + x_36
 + x_37 + x_39 + x_4 + x_6 + x_7 + x_8 >= 1
_C80: - 40 u_79 + x_0 + x_1 + x_10 + x_19 + x_20 + x_21 + x_23 + x_25 + x_26
 + x_29 + x_3 + x_31 + x_33 + x_34 + x_35 + x_36 + x_37 + x_38 + x_39 + x_7
 + x_9 >= 1
_C81: - 40 u_80 + x_0 + x_1 + x_10 + x_11 + x_12 + x_15 + x_16 + x_17 + x_18
 + x_19 + x_2 + x_22 + x_23 + x_24 + x_25 + x_26 + x_27 + x_28 + x_29 + x_3
 + x_30 + x_31 + x_32 + x_34 + x_35 + x_36 + x_38 + x_39 + x_5 + x_6 + x_7
 + x_8 + x_9 >= 1
_C82: - 40 u_81 + x_1 + x_14 + x_15 + x_16 + x_17 + x_18 + x_19 + x_2 + x_20
 + x_21 + x_23 + x_24 + x_25 + x_26 + x_28 + x_29 + x_3 + x_30 + x_32 + x_34
 + x_36 + x_38 + x_4 + x_5 + x_6 + x_7 + x_8 >= 1
_C83: - 40 u_82 + x_1 + x_10 + x_13 + x_14 + x_15 + x_16 + x_17 + x_2 + x_20
 + x_23 + x_24 + x_25 + x_29 + x_32 + x_33 + x_34 + x_38 + x_39 + x_4 + x_6
 + x_8 + x_9 >= 1
_C84: - 40 u_83 + x_11 + x_13 + x_14 + x_15 + x_17 + x_18 + x_19 + x_21 + x_22
 + x_25 + x_26 + x_28 + x_30 + x_31 + x_32 + x_33 + x_35 + x_36 + x_38 + x_39
 + x_4 + x_5 + x_6 + x_7 >= 1
_C85: - 40 u_84 + x_0 + x_10 + x_12 + x_13 + x_14 + x_16 + x_17 + x_18 + x_19
 + x_2 + x_21 + x_22 + x_24 + x_26 + x_28 + x_29 + x_3 + x_30 + x_33 + x_34
 + x_36 + x_37 + x_39 + x_5 + x_6 + x_7 + x_8 + x_9 >= 1
_C86: x_0 + x_1 + x_10 + x_11 + x_12 + x_13 + x_14 + x_15 + x_16 + x_17 + x_18
 + x_19 + x_2 + x_20 + x_21 + x_22 + x_23 + x_24 + x_25 + x_26 + x_27 + x_28
 + x_29 + x_3 + x_30 + x_31 + x_32 + x_33 + x_34 + x_35 + x_36 + x_37 + x_38
 + x_39 + x_4 + x_5 + x_6 + x_7 + x_8 + x_9 = 3
_C9: - 40 u_8 + x_10 + x_13 + x_15 + x_16 + x_17 + x_18 + x_2 + x_21 + x_22
 + x_24 + x_25 + x_26 + x_28 + x_29 + x_3 + x_30 + x_31 + x_32 + x_34 + x_39
 + x_5 + x_6 + x_7 >= 1
Binaries
u_0
u_1
u_10
u_11
u_12
u_13
u_14
u_15
u_16
u_17
u_18
u_19
u_2
u_20
u_21
u_22
u_23
u_24
u_25
u_26
u_27
u_28
u_29
u_3
u_30
u_31
u_32
u_33
u_34
u_35
u_36
u_37
u_38
u_39
u_4
u_40
u_41
u_42
u_43
u_44
u_45
u_46
u_47
u_48
u_49
u_5
u_50
u_51
u_52
u_53
u_54
u_55
u_56
u_57
u_58
u_59
u_6
u_60
u_61
u_62
u_63
u_64
u_65
u_66
u_67
u_68
u_69
u_7
u_70
u_71
u_72
u_73
u_74
u_75
u_76
u_77
u_78
u_79
u_8
u_80
u_81
u_82
u_83
u_84
u_9
x_0
x_1
x_10
x_11
x_12
x_13
x_14
x_15
x_16
x_17
x_18
x_19
x_2
x_20
x_21
x_22
x_23
x_24
x_25
x_26
x_27
x_28
x_29
x_3
x_30
x_31
x_32
x_33
x_34
x_35
x_36
x_37
x_38
x_39
x_4
x_5
x_6
x_7
x_8
x_9
End
